c 
c G(k,n,p) graph
c graph gen seed     : 512
c number of vertices : 25
c max number of edges: 500
c number of classes  : 2
c edge density       : 0.400000
c edge probability   : 0.800000
c data structure     : sparse
c
c           Graph Stats
c number of vertices  : 25
c nonisolated vertices: 25
c number of edges     : 116
c edge density        : 0.386667
c max degree          : 12
c avg degree          : 9.28
c min degree          : 6
p col 25 116
e 1 23
e 1 22
e 1 20
e 1 15
e 1 13
e 1 12
e 1 11
e 1 7
e 1 6
e 1 4
e 2 25
e 2 24
e 2 21
e 2 18
e 2 16
e 2 14
e 2 10
e 2 9
e 3 23
e 3 22
e 3 13
e 3 12
e 3 11
e 3 8
e 3 6
e 3 5
e 4 25
e 4 24
e 4 21
e 4 16
e 4 10
e 4 9
e 5 24
e 5 21
e 5 19
e 5 16
e 5 14
e 5 10
e 6 25
e 6 24
e 6 21
e 6 19
e 6 18
e 6 16
e 6 14
e 7 19
e 7 18
e 7 16
e 7 14
e 7 9
e 8 25
e 8 24
e 8 21
e 8 19
e 8 18
e 8 16
e 8 14
e 8 10
e 8 9
e 9 23
e 9 22
e 9 20
e 9 17
e 9 15
e 9 13
e 9 12
e 9 11
e 10 23
e 10 20
e 10 15
e 10 13
e 10 12
e 10 11
e 11 25
e 11 24
e 11 21
e 11 18
e 11 14
e 12 25
e 12 24
e 12 21
e 12 19
e 12 18
e 12 14
e 13 25
e 13 24
e 13 19
e 13 18
e 13 16
e 13 14
e 14 22
e 14 20
e 14 17
e 14 15
e 15 25
e 15 21
e 15 19
e 15 18
e 16 22
e 16 20
e 17 24
e 17 21
e 17 19
e 17 18
e 18 23
e 18 22
e 19 22
e 19 20
e 20 25
e 20 24
e 20 21
e 21 23
e 21 22
e 22 24
e 23 25
e 23 24
